DIMENSION :9
NODE_COORD_SECTION
1 -53.45650515169993 33.100026336074706
2 -33.08615094747344 -91.93027156284236
3 -92.15065597181894 62.85857790929575
4 89.12848694165703 -96.73541156518701
5 -51.76470167719729 20.662596710462992
6 -39.17032854952582 -42.406473869577525
7 -92.3413877717041 -67.89154056411795
8 66.6767984923749 38.64377856720188
9 -95.66092477982808 35.86508368691767
EOF
